
Gurobi 12.0.2 (win64) logging started Mon Nov  3 19:00:30 2025

Set parameter LogFile to value "resultados DATA_1_n20m10b2d1\instancia_3_log.txt"
Set parameter TimeLimit to value 1800
Gurobi Optimizer version 12.0.2 build v12.0.2rc0 (win64 - Windows 10.0 (19045.2))

CPU model: Intel(R) Core(TM) i5-6300U CPU @ 2.40GHz, instruction set [SSE2|AVX|AVX2]
Thread count: 2 physical cores, 4 logical processors, using up to 4 threads

Non-default parameters:
TimeLimit  1800

Optimize a model with 5518 rows, 29840 columns and 3663774 nonzeros
Model fingerprint: 0xc4a55631
Variable types: 0 continuous, 29840 integer (29840 binary)
Coefficient statistics:
  Matrix range     [1e+00, 1e+00]
  Objective range  [1e-03, 6e-02]
  Bounds range     [1e+00, 1e+00]
  RHS range        [1e+00, 7e+02]
Found heuristic solution: objective 0.9421250
Presolve removed 158 rows and 5742 columns (presolve time = 5s)...
Presolve removed 160 rows and 5742 columns (presolve time = 10s)...
Presolve removed 160 rows and 5742 columns (presolve time = 15s)...
Presolve removed 160 rows and 5742 columns (presolve time = 20s)...
Presolve removed 160 rows and 5742 columns (presolve time = 25s)...
Presolve removed 160 rows and 5742 columns (presolve time = 30s)...
Presolve removed 160 rows and 5742 columns
Presolve time: 31.15s
Presolved: 5358 rows, 24098 columns, 2837606 nonzeros
Found heuristic solution: objective 0.7616250
Variable types: 0 continuous, 24098 integer (24098 binary)
Found heuristic solution: objective 0.9501250
Deterministic concurrent LP optimizer: dual simplex and barrier
Showing barrier log only...

Root barrier log...

Ordering time: 0.05s

Barrier statistics:
 AA' NZ     : 5.143e+05
 Factor NZ  : 8.562e+05 (roughly 10 MB of memory)
 Factor Ops : 7.159e+08 (less than 1 second per iteration)
 Threads    : 1

                  Objective                Residual
Iter       Primal          Dual         Primal    Dual     Compl     Time
   0   2.69922072e+03  1.11587289e+00  1.69e+04 2.58e-03  3.94e-01    33s
   1   2.21047240e+02  2.14318372e+01  1.45e+03 1.30e-03  3.17e-02    33s
   2   1.02872989e+01  1.28995568e+01  7.18e+01 2.78e-16  2.32e-03    34s
   3   3.68723242e+00  5.96264057e+00  2.02e+01 3.61e-16  7.51e-04    34s
   4   1.63155612e+00  3.77480317e+00  4.49e+00 6.11e-16  3.48e-04    34s
   5   1.02361835e+00  2.07346709e+00  4.22e-01 3.89e-16  9.52e-05    34s
   6   9.68847826e-01  1.15345450e+00  1.62e-02 4.16e-16  1.40e-05    34s
   7   9.92191374e-01  1.03083627e+00  6.38e-04 2.84e-16  2.80e-06    35s
   8   9.98966592e-01  1.00522366e+00  0.00e+00 2.19e-16  4.48e-07    35s
   9   9.99946992e-01  1.00017054e+00  0.00e+00 2.08e-16  1.60e-08    35s
  10   9.99999784e-01  1.00000087e+00  0.00e+00 2.12e-16  7.77e-11    35s
  11   1.00000000e+00  1.00000000e+00  0.00e+00 1.21e-16  7.77e-14    35s

Barrier solved model in 11 iterations and 35.31 seconds (19.86 work units)
Optimal objective 1.00000000e+00


Root crossover log...

      64 DPushes remaining with DInf 0.0000000e+00                35s
       0 DPushes remaining with DInf 0.0000000e+00                35s

    4571 PPushes remaining with PInf 0.0000000e+00                35s
       0 PPushes remaining with PInf 0.0000000e+00                36s

  Push phase complete: Pinf 0.0000000e+00, Dinf 4.0635355e-12     36s


Root simplex log...

Iteration    Objective       Primal Inf.    Dual Inf.      Time
    4611    1.0000000e+00   0.000000e+00   0.000000e+00     36s
Concurrent spin time: 0.00s

Solved with barrier

Use crossover to convert LP symmetric solution to basic solution...

Root crossover log...

    5150 variables added to crossover basis                       40s

      80 DPushes remaining with DInf 0.0000000e+00                41s
       0 DPushes remaining with DInf 0.0000000e+00                41s

     833 PPushes remaining with PInf 0.0000000e+00                41s
       0 PPushes remaining with PInf 0.0000000e+00                44s

  Push phase complete: Pinf 0.0000000e+00, Dinf 8.1539424e-10     44s


Root simplex log...

Iteration    Objective       Primal Inf.    Dual Inf.      Time
    5527    1.0000000e+00   0.000000e+00   0.000000e+00     45s

Root relaxation: objective 1.000000e+00, 5527 iterations, 12.82 seconds (11.35 work units)

    Nodes    |    Current Node    |     Objective Bounds      |     Work
 Expl Unexpl |  Obj  Depth IntInf | Incumbent    BestBd   Gap | It/Node Time

     0     0    1.00000    0 4614    0.95013    1.00000  5.25%     -   99s
     0     0    1.00000    0 4614    0.95013    1.00000  5.25%     -  205s

Explored 1 nodes (17549 simplex iterations) in 6693.61 seconds (280.57 work units)
Thread count was 4 (of 4 available processors)

Solution count 3: 0.950125 0.942125 0.761625 

Time limit reached
Best objective 9.501250000000e-01, best bound 1.000000000000e+00, gap 5.2493%
